problem_generation/data/GISP/train/er_n=66_m=1355_p=0.60_SET2_setparam=100.00_alpha=0.50_770.lp
maximize
OBJ:100x0 + 100x1 + 100x2 + 100x3 + 100x4 + 100x5 + 100x6 + 100x7 + 100x8 + 100x9 + 100x10 + 100x11 + 100x12 + 100x13 + 100x14 + 100x15 + 100x16 + 100x17 + 100x18 + 100x19 + 100x20 + 100x21 + 100x22 + 100x23 + 100x24 + 100x25 + 100x26 + 100x27 + 100x28 + 100x29 + 100x30 + 100x31 + 100x32 + 100x33 + 100x34 + 100x35 + 100x36 + 100x37 + 100x38 + 100x39 + 100x40 + 100x41 + 100x42 + 100x43 + 100x44 + 100x45 + 100x46 + 100x47 + 100x48 + 100x49 + 100x50 + 100x51 + 100x52 + 100x53 + 100x54 + 100x55 + 100x56 + 100x57 + 100x58 + 100x59 + 100x60 + 100x61 + 100x62 + 100x63 + 100x64 + 100x65 - y15_21 - y7_17 - y18_26 - y15_39 - y17_58 - y29_32 - y8_9 - y48_54 - y40_50 - y21_46 - y11_23 - y21_55 - y10_27 - y41_42 - y33_38 - y41_51 - y10_45 - y3_6 - y44_56 - y25_52 - y3_15 - y14_15 - y22_28 - y51_64 - y32_60 - y3_33 - y13_65 - y24_65 - y14_51 - y17_53 - y28_53 - y7_30 - y40_45 - y48_58 - y21_41 - y29_54 - y6_61 - y10_22 - y10_40 - y33_42 - y25_38 - y3_10 - y22_23 - y51_59 - y43_55 - y14_28 - y13_60 - y35_60 - y16_56 - y36_43 - y7_16 - y36_52 - y17_48 - y28_48 - y59_63 - y9_44 - y29_40 - y29_49 - y40_58 - y21_54 - y6_65 - y10_26 - y54_60 - y10_35 - y25_33 - y10_44 - y32_41 - y3_14 - y35_46 - y3_23 - y32_59 - y24_55 - y35_55 - y16_51 - y24_64 - y36_38 - y28_34 - y7_11 - y36_65 - y47_65 - y5_59 - y6_24 - y21_22 - y29_35 - y21_31 - y6_42 - y29_44 - y42_63 - y6_51 - y21_49 - y2_8 - y10_21 - y39_57 - y2_17 - y2_26 - y20_62 - y12_58 - y2_35 - y32_45 - y35_41 - y3_18 - y43_54 - y1_48 - y13_50 - y16_46 - y1_57 - y17_20 - y16_64 - y17_38 - y28_38 - y9_34 - y5_45 - y5_54 - y6_19 - y9_52 - y27_60 - y50_62 - y61_62 - y30_65 - y20_39 - y39_61 - y62_63 - y2_21 - y20_57 - y12_53 - y2_30 - y23_62 - y13_27 - y24_27 - y3_4 - y32_40 - y16_32 - y32_58 - y13_54 - y16_50 - y24_63 - y35_63 - y9_11 - y17_24 - y17_33 - y38_65 - y5_40 - y6_14 - y27_55 - y6_32 - y21_30 - y10_11 - y39_47 - y20_43 - y23_39 - y20_52 - y31_52 - y39_65 - y23_48 - y31_61 - y13_22 - y24_31 - y32_44 - y1_38 - y24_40 - y1_47 - y35_49 - y17_19 - y1_65 - y46_55 - y49_51 - y17_28 - y57_64 - y9_24 - y38_60 - y28_37 - y7_63 - y6_18 - y50_52 - y58_65 - y8_46 - y30_46 - y27_59 - y42_48 - y30_55 - y0_51 - y20_29 - y31_38 - y12_34 - y2_11 - y23_43 - y23_52 - y1_15 - y4_48 - y1_24 - y53_62 - y16_22 - y34_58 - y24_35 - y16_31 - y1_42 - y13_44 - y35_44 - y16_40 - y1_51 - y5_12 - y46_50 - y38_46 - y5_21 - y17_23 - y57_59 - y5_30 - y38_64 - y18_58 - y8_32 - y19_32 - y27_45 - y19_41 - y27_54 - y11_37 - y30_50 - y27_63 - y11_46 - y19_59 - y20_24 - y20_33 - y12_29 - y20_42 - y23_47 - y12_56 - y45_53 - y34_62 - y37_58 - y5_7 - y5_16 - y46_54 - y38_50 - y57_63 - y38_59 - y7_53 - y8_27 - y19_27 - y8_36 - y0_32 - y11_41 - y8_54 - y12_15 - y60_64 - y39_41 - y12_24 - y52_60 - y44_65 - y12_42 - y34_39 - y13_16 - y24_25 - y16_21 - y22_55 - y15_43 - y38_45 - y46_58 - y49_54 - y7_48 - y18_57 - y8_22 - y19_40 - y11_36 - y30_49 - y4_6 - y11_54 - y31_32 - y4_15 - y23_28 - y44_60 - y12_37 - y23_37 - y4_33 - y1_9 - y2_63 - y34_43 - y1_18 - y22_50 - y14_46 - y37_48 - y45_61 - y56_61 - y3_55 - y3_64 - y14_64 - y5_6 - y15_38 - y26_38 - y38_40 - y18_52 - y26_65 - y27_30 - y0_13 - y18_61 - y19_26 - y11_22 - y30_35 - y60_63 - y4_10 - y4_19 - y25_51 - y10_62 - y1_4 - y2_58 - y25_60 - y3_32 - y45_47 - y3_41 - y14_41 - y56_65 - y37_61 - y15_24 - y7_20 - y7_29 - y18_29 - y18_38 - y8_12 - y8_30 - y6_60 - y11_35 - y25_37 - y33_50 - y44_50 - y25_46 - y25_55 - y22_31 - y2_62 - y3_27 - y14_27 - y22_40 - y3_36 - y3_63 - y36_60 - y59_62 - y7_33 - y26_46 - y17_65 - y48_61 - y11_30 - y6_64 - y10_34 - y41_49 - y4_9 - y10_43 - y10_52 - y22_26 - y2_57 - y14_22 - y22_35 - y3_31 - y14_31 - y14_40 - y3_49 - y36_46 - y26_32 - y18_28 - y36_64 - y7_37 - y18_37 - y9_65 - y6_41 - y11_16 - y29_52 - y48_65 - y21_57 - y10_20 - y10_38 - y2_34 - y2_43 - y3_8 - y25_45 - y51_57 - y2_52 - y3_17 - y32_53 - y32_62 - y22_39 - y13_58 - y16_63 - y7_14 - y36_50 - y47_50 - y17_46 - y7_23 - y9_42 - y36_59 - y17_55 - y28_55 - y47_59 - y9_51 - y5_62 - y17_64 - y28_64 - y6_36 - y6_45 - y29_47 - y21_43 - y40_56 - y10_15 - y10_24 - y2_29 - y25_40 - y51_52 - y32_48 - y43_48 - y51_61 - y32_57 - y3_30 - y14_30 - y13_62 - y16_58 - y28_32 - y7_9 - y5_48 - y17_50 - y17_59 - y50_65 - y61_65 - y40_42 - y21_47 - y39_55 - y2_15 - y31_60 - y54_62 - y10_37 - y13_39 - y24_39 - y43_52 - y35_48 - y14_25 - y1_55 - y13_57 - y24_57 - y36_40 - y9_23 - y47_49 - y9_32 - y17_45 - y28_45 - y36_58 - y28_63 - y9_59 - y50_60 - y6_35 - y29_37 - y2_19 - y20_55 - y10_32 - y23_51 - y31_55 - y13_34 - y24_34 - y43_47 - y51_60 - y13_52 - y32_65 - y16_48 - y1_59 - y24_61 - y5_20 - y17_22 - y17_31 - y36_44 - y5_38 - y3_56 - y17_40 - y9_54 - y50_64 - y6_39 - y19_58 - y11_63 - y31_41 - y20_50 - y31_50 - y2_23 - y23_55 - y23_64 - y1_27 - y4_60 - y1_36 - y13_38 - y32_51 - y16_34 - y1_45 - y24_47 - y35_47 - y35_56 - y9_13 - y5_24 - y28_35 - y28_44 - y58_63 - y27_57 - y30_53 - y42_55 - y0_49 - y8_62 - y11_58 - y39_40 - y20_36 - y39_49 - y20_45 - y23_41 - y2_18 - y54_56 - y12_50 - y20_63 - y12_59 - y53_60 - y4_55 - y16_20 - y32_37 - y43_46 - y1_40 - y35_42 - y5_10 - y1_58 - y38_44 - y5_19 - y17_21 - y27_34 - y7_65 - y18_65 - y6_20 - y19_39 - y8_48 - y19_48 - y27_61 - y42_50 - y61_63 - y8_57 - y19_57 - y20_22 - y0_53 - y42_59 - y0_62 - y11_62 - y2_4 - y20_49 - y20_58 - y31_58 - y23_54 - y4_50 - y1_26 - y13_28 - y45_60 - y1_35 - y35_37 - y16_33 - y37_65 - y38_39 - y46_52 - y57_61 - y9_21 - y26_55 - y38_57 - y15_64 - y27_38 - y8_34 - y8_43 - y30_43 - y27_56 - y42_45 - y8_52 - y11_48 - y8_61 - y19_61 - y30_61 - y12_22 - y20_35 - y23_31 - y31_44 - y4_27 - y4_36 - y23_49 - y13_14 - y4_45 - y1_21 - y53_59 - y34_55 - y1_30 - y45_64 - y1_39 - y46_47 - y15_41 - y26_41 - y38_43 - y9_16 - y26_50 - y49_61 - y18_55 - y8_20 - y19_20 - y27_33 - y7_64 - y19_38 - y30_38 - y0_34 - y30_47 - y11_52 - y20_30 - y4_13 - y23_26 - y31_39 - y12_35 - y10_65 - y23_44 - y25_63 - y34_41 - y34_50 - y1_25 - y53_63 - y3_53 - y14_53 - y37_55 - y26_36 - y5_13 - y18_32 - y15_45 - y26_45 - y7_50 - y18_50 - y26_63 - y18_59 - y19_24 - y8_33 - y40_65 - y30_42 - y4_8 - y44_53 - y12_30 - y44_62 - y1_2 - y22_34 - y34_36 - y1_20 - y14_39 - y53_58 - y22_52 - y3_48 - y14_48 - y22_61 - y34_63 - y3_57 - y7_18 - y7_27 - y26_40 - y18_36 - y7_45 - y18_45 - y7_54 - y8_19 - y18_54 - y18_63 - y19_28 - y40_60 - y19_37 - y21_56 - y0_42 - y41_43 - y4_12 - y44_48 - y52_61 - y4_21 - y10_55 - y44_57 - y25_62 - y34_40 - y22_47 - y22_56 - y45_58 - y56_58 - y7_13 - y3_61 - y14_61 - y59_60 - y15_35 - y26_35 - y7_31 - y15_44 - y17_63 - y7_40 - y0_1 - y18_49 - y8_14 - y29_46 - y19_23 - y29_55 - y0_28 - y11_28 - y41_47 - y10_41 - y41_56 - y25_39 - y52_56 - y4_16 - y33_52 - y14_20 - y22_33 - y3_29 - y22_51 - y37_49 - y7_8 - y14_56
 Subject to
C1: x0+x1-y0_1 <=1 
C2: x0+x3 <=1 
C3: x0+x5 <=1 
C4: x0+x6 <=1 
C5: x0+x7 <=1 
C6: x0+x8 <=1 
C7: x0+x13-y0_13 <=1 
C8: x0+x14 <=1 
C9: x0+x16 <=1 
C10: x0+x23 <=1 
C11: x0+x25 <=1 
C12: x0+x27 <=1 
C13: x0+x28-y0_28 <=1 
C14: x0+x29 <=1 
C15: x0+x30 <=1 
C16: x0+x32-y0_32 <=1 
C17: x0+x34-y0_34 <=1 
C18: x0+x39 <=1 
C19: x0+x41 <=1 
C20: x0+x42-y0_42 <=1 
C21: x0+x44 <=1 
C22: x0+x45 <=1 
C23: x0+x46 <=1 
C24: x0+x48 <=1 
C25: x0+x49-y0_49 <=1 
C26: x0+x51-y0_51 <=1 
C27: x0+x53-y0_53 <=1 
C28: x0+x55 <=1 
C29: x0+x57 <=1 
C30: x0+x61 <=1 
C31: x0+x62-y0_62 <=1 
C32: x0+x64 <=1 
C33: x0+x65 <=1 
C34: x1+x2-y1_2 <=1 
C35: x1+x4-y1_4 <=1 
C36: x1+x6 <=1 
C37: x1+x7 <=1 
C38: x1+x8 <=1 
C39: x1+x9-y1_9 <=1 
C40: x1+x11 <=1 
C41: x1+x13 <=1 
C42: x1+x14 <=1 
C43: x1+x15-y1_15 <=1 
C44: x1+x17 <=1 
C45: x1+x18-y1_18 <=1 
C46: x1+x20-y1_20 <=1 
C47: x1+x21-y1_21 <=1 
C48: x1+x23 <=1 
C49: x1+x24-y1_24 <=1 
C50: x1+x25-y1_25 <=1 
C51: x1+x26-y1_26 <=1 
C52: x1+x27-y1_27 <=1 
C53: x1+x28 <=1 
C54: x1+x29 <=1 
C55: x1+x30-y1_30 <=1 
C56: x1+x31 <=1 
C57: x1+x32 <=1 
C58: x1+x34 <=1 
C59: x1+x35-y1_35 <=1 
C60: x1+x36-y1_36 <=1 
C61: x1+x37 <=1 
C62: x1+x38-y1_38 <=1 
C63: x1+x39-y1_39 <=1 
C64: x1+x40-y1_40 <=1 
C65: x1+x41 <=1 
C66: x1+x42-y1_42 <=1 
C67: x1+x44 <=1 
C68: x1+x45-y1_45 <=1 
C69: x1+x46 <=1 
C70: x1+x47-y1_47 <=1 
C71: x1+x48-y1_48 <=1 
C72: x1+x50 <=1 
C73: x1+x51-y1_51 <=1 
C74: x1+x52 <=1 
C75: x1+x54 <=1 
C76: x1+x55-y1_55 <=1 
C77: x1+x57-y1_57 <=1 
C78: x1+x58-y1_58 <=1 
C79: x1+x59-y1_59 <=1 
C80: x1+x63 <=1 
C81: x1+x64 <=1 
C82: x1+x65-y1_65 <=1 
C83: x2+x4-y2_4 <=1 
C84: x2+x8-y2_8 <=1 
C85: x2+x9 <=1 
C86: x2+x10 <=1 
C87: x2+x11-y2_11 <=1 
C88: x2+x14 <=1 
C89: x2+x15-y2_15 <=1 
C90: x2+x16 <=1 
C91: x2+x17-y2_17 <=1 
C92: x2+x18-y2_18 <=1 
C93: x2+x19-y2_19 <=1 
C94: x2+x21-y2_21 <=1 
C95: x2+x23-y2_23 <=1 
C96: x2+x26-y2_26 <=1 
C97: x2+x28 <=1 
C98: x2+x29-y2_29 <=1 
C99: x2+x30-y2_30 <=1 
C100: x2+x31 <=1 
C101: x2+x33 <=1 
C102: x2+x34-y2_34 <=1 
C103: x2+x35-y2_35 <=1 
C104: x2+x36 <=1 
C105: x2+x38 <=1 
C106: x2+x42 <=1 
C107: x2+x43-y2_43 <=1 
C108: x2+x45 <=1 
C109: x2+x46 <=1 
C110: x2+x48 <=1 
C111: x2+x49 <=1 
C112: x2+x50 <=1 
C113: x2+x52-y2_52 <=1 
C114: x2+x53 <=1 
C115: x2+x54 <=1 
C116: x2+x57-y2_57 <=1 
C117: x2+x58-y2_58 <=1 
C118: x2+x60 <=1 
C119: x2+x62-y2_62 <=1 
C120: x2+x63-y2_63 <=1 
C121: x2+x64 <=1 
C122: x3+x4-y3_4 <=1 
C123: x3+x5 <=1 
C124: x3+x6-y3_6 <=1 
C125: x3+x8-y3_8 <=1 
C126: x3+x10-y3_10 <=1 
C127: x3+x11 <=1 
C128: x3+x12 <=1 
C129: x3+x14-y3_14 <=1 
C130: x3+x15-y3_15 <=1 
C131: x3+x17-y3_17 <=1 
C132: x3+x18-y3_18 <=1 
C133: x3+x20 <=1 
C134: x3+x23-y3_23 <=1 
C135: x3+x26 <=1 
C136: x3+x27-y3_27 <=1 
C137: x3+x29-y3_29 <=1 
C138: x3+x30-y3_30 <=1 
C139: x3+x31-y3_31 <=1 
C140: x3+x32-y3_32 <=1 
C141: x3+x33-y3_33 <=1 
C142: x3+x35 <=1 
C143: x3+x36-y3_36 <=1 
C144: x3+x37 <=1 
C145: x3+x40 <=1 
C146: x3+x41-y3_41 <=1 
C147: x3+x42 <=1 
C148: x3+x43 <=1 
C149: x3+x44 <=1 
C150: x3+x48-y3_48 <=1 
C151: x3+x49-y3_49 <=1 
C152: x3+x51 <=1 
C153: x3+x53-y3_53 <=1 
C154: x3+x55-y3_55 <=1 
C155: x3+x56-y3_56 <=1 
C156: x3+x57-y3_57 <=1 
C157: x3+x59 <=1 
C158: x3+x61-y3_61 <=1 
C159: x3+x63-y3_63 <=1 
C160: x3+x64-y3_64 <=1 
C161: x3+x65 <=1 
C162: x4+x6-y4_6 <=1 
C163: x4+x8-y4_8 <=1 
C164: x4+x9-y4_9 <=1 
C165: x4+x10-y4_10 <=1 
C166: x4+x12-y4_12 <=1 
C167: x4+x13-y4_13 <=1 
C168: x4+x14 <=1 
C169: x4+x15-y4_15 <=1 
C170: x4+x16-y4_16 <=1 
C171: x4+x18 <=1 
C172: x4+x19-y4_19 <=1 
C173: x4+x20 <=1 
C174: x4+x21-y4_21 <=1 
C175: x4+x22 <=1 
C176: x4+x23 <=1 
C177: x4+x25 <=1 
C178: x4+x26 <=1 
C179: x4+x27-y4_27 <=1 
C180: x4+x28 <=1 
C181: x4+x30 <=1 
C182: x4+x31 <=1 
C183: x4+x33-y4_33 <=1 
C184: x4+x34 <=1 
C185: x4+x35 <=1 
C186: x4+x36-y4_36 <=1 
C187: x4+x44 <=1 
C188: x4+x45-y4_45 <=1 
C189: x4+x47 <=1 
C190: x4+x48-y4_48 <=1 
C191: x4+x49 <=1 
C192: x4+x50-y4_50 <=1 
C193: x4+x53 <=1 
C194: x4+x54 <=1 
C195: x4+x55-y4_55 <=1 
C196: x4+x60-y4_60 <=1 
C197: x4+x61 <=1 
C198: x4+x62 <=1 
C199: x5+x6-y5_6 <=1 
C200: x5+x7-y5_7 <=1 
C201: x5+x8 <=1 
C202: x5+x10-y5_10 <=1 
C203: x5+x11 <=1 
C204: x5+x12-y5_12 <=1 
C205: x5+x13-y5_13 <=1 
C206: x5+x16-y5_16 <=1 
C207: x5+x17 <=1 
C208: x5+x18 <=1 
C209: x5+x19-y5_19 <=1 
C210: x5+x20-y5_20 <=1 
C211: x5+x21-y5_21 <=1 
C212: x5+x24-y5_24 <=1 
C213: x5+x25 <=1 
C214: x5+x27 <=1 
C215: x5+x28 <=1 
C216: x5+x29 <=1 
C217: x5+x30-y5_30 <=1 
C218: x5+x32 <=1 
C219: x5+x34 <=1 
C220: x5+x37 <=1 
C221: x5+x38-y5_38 <=1 
C222: x5+x39 <=1 
C223: x5+x40-y5_40 <=1 
C224: x5+x41 <=1 
C225: x5+x42 <=1 
C226: x5+x45-y5_45 <=1 
C227: x5+x48-y5_48 <=1 
C228: x5+x50 <=1 
C229: x5+x51 <=1 
C230: x5+x52 <=1 
C231: x5+x54-y5_54 <=1 
C232: x5+x55 <=1 
C233: x5+x57 <=1 
C234: x5+x58 <=1 
C235: x5+x59-y5_59 <=1 
C236: x5+x61 <=1 
C237: x5+x62-y5_62 <=1 
C238: x5+x63 <=1 
C239: x6+x11 <=1 
C240: x6+x12 <=1 
C241: x6+x13 <=1 
C242: x6+x14-y6_14 <=1 
C243: x6+x16 <=1 
C244: x6+x18-y6_18 <=1 
C245: x6+x19-y6_19 <=1 
C246: x6+x20-y6_20 <=1 
C247: x6+x21 <=1 
C248: x6+x23 <=1 
C249: x6+x24-y6_24 <=1 
C250: x6+x25 <=1 
C251: x6+x26 <=1 
C252: x6+x27 <=1 
C253: x6+x28 <=1 
C254: x6+x29 <=1 
C255: x6+x32-y6_32 <=1 
C256: x6+x35-y6_35 <=1 
C257: x6+x36-y6_36 <=1 
C258: x6+x38 <=1 
C259: x6+x39-y6_39 <=1 
C260: x6+x41-y6_41 <=1 
C261: x6+x42-y6_42 <=1 
C262: x6+x43 <=1 
C263: x6+x44 <=1 
C264: x6+x45-y6_45 <=1 
C265: x6+x48 <=1 
C266: x6+x50 <=1 
C267: x6+x51-y6_51 <=1 
C268: x6+x53 <=1 
C269: x6+x55 <=1 
C270: x6+x58 <=1 
C271: x6+x60-y6_60 <=1 
C272: x6+x61-y6_61 <=1 
C273: x6+x64-y6_64 <=1 
C274: x6+x65-y6_65 <=1 
C275: x7+x8-y7_8 <=1 
C276: x7+x9-y7_9 <=1 
C277: x7+x10 <=1 
C278: x7+x11-y7_11 <=1 
C279: x7+x12 <=1 
C280: x7+x13-y7_13 <=1 
C281: x7+x14-y7_14 <=1 
C282: x7+x16-y7_16 <=1 
C283: x7+x17-y7_17 <=1 
C284: x7+x18-y7_18 <=1 
C285: x7+x20-y7_20 <=1 
C286: x7+x21 <=1 
C287: x7+x22 <=1 
C288: x7+x23-y7_23 <=1 
C289: x7+x24 <=1 
C290: x7+x25 <=1 
C291: x7+x27-y7_27 <=1 
C292: x7+x28 <=1 
C293: x7+x29-y7_29 <=1 
C294: x7+x30-y7_30 <=1 
C295: x7+x31-y7_31 <=1 
C296: x7+x32 <=1 
C297: x7+x33-y7_33 <=1 
C298: x7+x35 <=1 
C299: x7+x37-y7_37 <=1 
C300: x7+x40-y7_40 <=1 
C301: x7+x42 <=1 
C302: x7+x45-y7_45 <=1 
C303: x7+x48-y7_48 <=1 
C304: x7+x49 <=1 
C305: x7+x50-y7_50 <=1 
C306: x7+x51 <=1 
C307: x7+x53-y7_53 <=1 
C308: x7+x54-y7_54 <=1 
C309: x7+x58 <=1 
C310: x7+x63-y7_63 <=1 
C311: x7+x64-y7_64 <=1 
C312: x7+x65-y7_65 <=1 
C313: x8+x9-y8_9 <=1 
C314: x8+x12-y8_12 <=1 
C315: x8+x14-y8_14 <=1 
C316: x8+x16 <=1 
C317: x8+x18 <=1 
C318: x8+x19-y8_19 <=1 
C319: x8+x20-y8_20 <=1 
C320: x8+x21 <=1 
C321: x8+x22-y8_22 <=1 
C322: x8+x23 <=1 
C323: x8+x24 <=1 
C324: x8+x27-y8_27 <=1 
C325: x8+x29 <=1 
C326: x8+x30-y8_30 <=1 
C327: x8+x32-y8_32 <=1 
C328: x8+x33-y8_33 <=1 
C329: x8+x34-y8_34 <=1 
C330: x8+x36-y8_36 <=1 
C331: x8+x37 <=1 
C332: x8+x39 <=1 
C333: x8+x40 <=1 
C334: x8+x41 <=1 
C335: x8+x43-y8_43 <=1 
C336: x8+x44 <=1 
C337: x8+x46-y8_46 <=1 
C338: x8+x48-y8_48 <=1 
C339: x8+x50 <=1 
C340: x8+x52-y8_52 <=1 
C341: x8+x54-y8_54 <=1 
C342: x8+x56 <=1 
C343: x8+x57-y8_57 <=1 
C344: x8+x59 <=1 
C345: x8+x61-y8_61 <=1 
C346: x8+x62-y8_62 <=1 
C347: x8+x63 <=1 
C348: x8+x64 <=1 
C349: x9+x11-y9_11 <=1 
C350: x9+x13-y9_13 <=1 
C351: x9+x16-y9_16 <=1 
C352: x9+x18 <=1 
C353: x9+x19 <=1 
C354: x9+x20 <=1 
C355: x9+x21-y9_21 <=1 
C356: x9+x23-y9_23 <=1 
C357: x9+x24-y9_24 <=1 
C358: x9+x26 <=1 
C359: x9+x28 <=1 
C360: x9+x30 <=1 
C361: x9+x31 <=1 
C362: x9+x32-y9_32 <=1 
C363: x9+x33 <=1 
C364: x9+x34-y9_34 <=1 
C365: x9+x36 <=1 
C366: x9+x41 <=1 
C367: x9+x42-y9_42 <=1 
C368: x9+x43 <=1 
C369: x9+x44-y9_44 <=1 
C370: x9+x45 <=1 
C371: x9+x46 <=1 
C372: x9+x47 <=1 
C373: x9+x49 <=1 
C374: x9+x50 <=1 
C375: x9+x51-y9_51 <=1 
C376: x9+x52-y9_52 <=1 
C377: x9+x53 <=1 
C378: x9+x54-y9_54 <=1 
C379: x9+x59-y9_59 <=1 
C380: x9+x61 <=1 
C381: x9+x63 <=1 
C382: x9+x64 <=1 
C383: x9+x65-y9_65 <=1 
C384: x10+x11-y10_11 <=1 
C385: x10+x13 <=1 
C386: x10+x14 <=1 
C387: x10+x15-y10_15 <=1 
C388: x10+x16 <=1 
C389: x10+x18 <=1 
C390: x10+x20-y10_20 <=1 
C391: x10+x21-y10_21 <=1 
C392: x10+x22-y10_22 <=1 
C393: x10+x23 <=1 
C394: x10+x24-y10_24 <=1 
C395: x10+x25 <=1 
C396: x10+x26-y10_26 <=1 
C397: x10+x27-y10_27 <=1 
C398: x10+x30 <=1 
C399: x10+x31 <=1 
C400: x10+x32-y10_32 <=1 
C401: x10+x34-y10_34 <=1 
C402: x10+x35-y10_35 <=1 
C403: x10+x37-y10_37 <=1 
C404: x10+x38-y10_38 <=1 
C405: x10+x39 <=1 
C406: x10+x40-y10_40 <=1 
C407: x10+x41-y10_41 <=1 
C408: x10+x42 <=1 
C409: x10+x43-y10_43 <=1 
C410: x10+x44-y10_44 <=1 
C411: x10+x45-y10_45 <=1 
C412: x10+x46 <=1 
C413: x10+x49 <=1 
C414: x10+x50 <=1 
C415: x10+x52-y10_52 <=1 
C416: x10+x53 <=1 
C417: x10+x54 <=1 
C418: x10+x55-y10_55 <=1 
C419: x10+x59 <=1 
C420: x10+x60 <=1 
C421: x10+x62-y10_62 <=1 
C422: x10+x63 <=1 
C423: x10+x65-y10_65 <=1 
C424: x11+x12 <=1 
C425: x11+x13 <=1 
C426: x11+x15 <=1 
C427: x11+x16-y11_16 <=1 
C428: x11+x20 <=1 
C429: x11+x21 <=1 
C430: x11+x22-y11_22 <=1 
C431: x11+x23-y11_23 <=1 
C432: x11+x25 <=1 
C433: x11+x28-y11_28 <=1 
C434: x11+x30-y11_30 <=1 
C435: x11+x32 <=1 
C436: x11+x35-y11_35 <=1 
C437: x11+x36-y11_36 <=1 
C438: x11+x37-y11_37 <=1 
C439: x11+x38 <=1 
C440: x11+x39 <=1 
C441: x11+x41-y11_41 <=1 
C442: x11+x42 <=1 
C443: x11+x43 <=1 
C444: x11+x46-y11_46 <=1 
C445: x11+x48-y11_48 <=1 
C446: x11+x50 <=1 
C447: x11+x51 <=1 
C448: x11+x52-y11_52 <=1 
C449: x11+x54-y11_54 <=1 
C450: x11+x55 <=1 
C451: x11+x58-y11_58 <=1 
C452: x11+x62-y11_62 <=1 
C453: x11+x63-y11_63 <=1 
C454: x11+x65 <=1 
C455: x12+x13 <=1 
C456: x12+x15-y12_15 <=1 
C457: x12+x16 <=1 
C458: x12+x20 <=1 
C459: x12+x22-y12_22 <=1 
C460: x12+x23 <=1 
C461: x12+x24-y12_24 <=1 
C462: x12+x27 <=1 
C463: x12+x29-y12_29 <=1 
C464: x12+x30-y12_30 <=1 
C465: x12+x33 <=1 
C466: x12+x34-y12_34 <=1 
C467: x12+x35-y12_35 <=1 
C468: x12+x37-y12_37 <=1 
C469: x12+x38 <=1 
C470: x12+x41 <=1 
C471: x12+x42-y12_42 <=1 
C472: x12+x44 <=1 
C473: x12+x48 <=1 
C474: x12+x49 <=1 
C475: x12+x50-y12_50 <=1 
C476: x12+x52 <=1 
C477: x12+x53-y12_53 <=1 
C478: x12+x55 <=1 
C479: x12+x56-y12_56 <=1 
C480: x12+x57 <=1 
C481: x12+x58-y12_58 <=1 
C482: x12+x59-y12_59 <=1 
C483: x12+x60 <=1 
C484: x12+x63 <=1 
C485: x12+x64 <=1 
C486: x12+x65 <=1 
C487: x13+x14-y13_14 <=1 
C488: x13+x15 <=1 
C489: x13+x16-y13_16 <=1 
C490: x13+x22-y13_22 <=1 
C491: x13+x23 <=1 
C492: x13+x24 <=1 
C493: x13+x27-y13_27 <=1 
C494: x13+x28-y13_28 <=1 
C495: x13+x30 <=1 
C496: x13+x31 <=1 
C497: x13+x32 <=1 
C498: x13+x34-y13_34 <=1 
C499: x13+x35 <=1 
C500: x13+x37 <=1 
C501: x13+x38-y13_38 <=1 
C502: x13+x39-y13_39 <=1 
C503: x13+x44-y13_44 <=1 
C504: x13+x46 <=1 
C505: x13+x48 <=1 
C506: x13+x49 <=1 
C507: x13+x50-y13_50 <=1 
C508: x13+x51 <=1 
C509: x13+x52-y13_52 <=1 
C510: x13+x53 <=1 
C511: x13+x54-y13_54 <=1 
C512: x13+x56 <=1 
C513: x13+x57-y13_57 <=1 
C514: x13+x58-y13_58 <=1 
C515: x13+x60-y13_60 <=1 
C516: x13+x62-y13_62 <=1 
C517: x13+x65-y13_65 <=1 
C518: x14+x15-y14_15 <=1 
C519: x14+x16 <=1 
C520: x14+x18 <=1 
C521: x14+x19 <=1 
C522: x14+x20-y14_20 <=1 
C523: x14+x22-y14_22 <=1 
C524: x14+x23 <=1 
C525: x14+x24 <=1 
C526: x14+x25-y14_25 <=1 
C527: x14+x26 <=1 
C528: x14+x27-y14_27 <=1 
C529: x14+x28-y14_28 <=1 
C530: x14+x30-y14_30 <=1 
C531: x14+x31-y14_31 <=1 
C532: x14+x32 <=1 
C533: x14+x33 <=1 
C534: x14+x36 <=1 
C535: x14+x38 <=1 
C536: x14+x39-y14_39 <=1 
C537: x14+x40-y14_40 <=1 
C538: x14+x41-y14_41 <=1 
C539: x14+x42 <=1 
C540: x14+x44 <=1 
C541: x14+x46-y14_46 <=1 
C542: x14+x48-y14_48 <=1 
C543: x14+x51-y14_51 <=1 
C544: x14+x53-y14_53 <=1 
C545: x14+x54 <=1 
C546: x14+x56-y14_56 <=1 
C547: x14+x58 <=1 
C548: x14+x60 <=1 
C549: x14+x61-y14_61 <=1 
C550: x14+x63 <=1 
C551: x14+x64-y14_64 <=1 
C552: x14+x65 <=1 
C553: x15+x16 <=1 
C554: x15+x17 <=1 
C555: x15+x18 <=1 
C556: x15+x21-y15_21 <=1 
C557: x15+x22 <=1 
C558: x15+x24-y15_24 <=1 
C559: x15+x26 <=1 
C560: x15+x27 <=1 
C561: x15+x28 <=1 
C562: x15+x30 <=1 
C563: x15+x31 <=1 
C564: x15+x32 <=1 
C565: x15+x34 <=1 
C566: x15+x35-y15_35 <=1 
C567: x15+x36 <=1 
C568: x15+x37 <=1 
C569: x15+x38-y15_38 <=1 
C570: x15+x39-y15_39 <=1 
C571: x15+x41-y15_41 <=1 
C572: x15+x43-y15_43 <=1 
C573: x15+x44-y15_44 <=1 
C574: x15+x45-y15_45 <=1 
C575: x15+x47 <=1 
C576: x15+x48 <=1 
C577: x15+x49 <=1 
C578: x15+x50 <=1 
C579: x15+x52 <=1 
C580: x15+x54 <=1 
C581: x15+x55 <=1 
C582: x15+x60 <=1 
C583: x15+x63 <=1 
C584: x15+x64-y15_64 <=1 
C585: x16+x18 <=1 
C586: x16+x20-y16_20 <=1 
C587: x16+x21-y16_21 <=1 
C588: x16+x22-y16_22 <=1 
C589: x16+x24 <=1 
C590: x16+x25 <=1 
C591: x16+x26 <=1 
C592: x16+x27 <=1 
C593: x16+x29 <=1 
C594: x16+x31-y16_31 <=1 
C595: x16+x32-y16_32 <=1 
C596: x16+x33-y16_33 <=1 
C597: x16+x34-y16_34 <=1 
C598: x16+x36 <=1 
C599: x16+x37 <=1 
C600: x16+x40-y16_40 <=1 
C601: x16+x43 <=1 
C602: x16+x44 <=1 
C603: x16+x46-y16_46 <=1 
C604: x16+x47 <=1 
C605: x16+x48-y16_48 <=1 
C606: x16+x50-y16_50 <=1 
C607: x16+x51-y16_51 <=1 
C608: x16+x54 <=1 
C609: x16+x56-y16_56 <=1 
C610: x16+x57 <=1 
C611: x16+x58-y16_58 <=1 
C612: x16+x59 <=1 
C613: x16+x60 <=1 
C614: x16+x62 <=1 
C615: x16+x63-y16_63 <=1 
C616: x16+x64-y16_64 <=1 
C617: x17+x18 <=1 
C618: x17+x19-y17_19 <=1 
C619: x17+x20-y17_20 <=1 
C620: x17+x21-y17_21 <=1 
C621: x17+x22-y17_22 <=1 
C622: x17+x23-y17_23 <=1 
C623: x17+x24-y17_24 <=1 
C624: x17+x27 <=1 
C625: x17+x28-y17_28 <=1 
C626: x17+x29 <=1 
C627: x17+x30 <=1 
C628: x17+x31-y17_31 <=1 
C629: x17+x33-y17_33 <=1 
C630: x17+x38-y17_38 <=1 
C631: x17+x40-y17_40 <=1 
C632: x17+x42 <=1 
C633: x17+x44 <=1 
C634: x17+x45-y17_45 <=1 
C635: x17+x46-y17_46 <=1 
C636: x17+x48-y17_48 <=1 
C637: x17+x50-y17_50 <=1 
C638: x17+x51 <=1 
C639: x17+x52 <=1 
C640: x17+x53-y17_53 <=1 
C641: x17+x55-y17_55 <=1 
C642: x17+x57 <=1 
C643: x17+x58-y17_58 <=1 
C644: x17+x59-y17_59 <=1 
C645: x17+x60 <=1 
C646: x17+x63-y17_63 <=1 
C647: x17+x64-y17_64 <=1 
C648: x17+x65-y17_65 <=1 
C649: x18+x21 <=1 
C650: x18+x23 <=1 
C651: x18+x24 <=1 
C652: x18+x26-y18_26 <=1 
C653: x18+x27 <=1 
C654: x18+x28-y18_28 <=1 
C655: x18+x29-y18_29 <=1 
C656: x18+x31 <=1 
C657: x18+x32-y18_32 <=1 
C658: x18+x33 <=1 
C659: x18+x35 <=1 
C660: x18+x36-y18_36 <=1 
C661: x18+x37-y18_37 <=1 
C662: x18+x38-y18_38 <=1 
C663: x18+x39 <=1 
C664: x18+x40 <=1 
C665: x18+x43 <=1 
C666: x18+x45-y18_45 <=1 
C667: x18+x46 <=1 
C668: x18+x47 <=1 
C669: x18+x48 <=1 
C670: x18+x49-y18_49 <=1 
C671: x18+x50-y18_50 <=1 
C672: x18+x52-y18_52 <=1 
C673: x18+x53 <=1 
C674: x18+x54-y18_54 <=1 
C675: x18+x55-y18_55 <=1 
C676: x18+x56 <=1 
C677: x18+x57-y18_57 <=1 
C678: x18+x58-y18_58 <=1 
C679: x18+x59-y18_59 <=1 
C680: x18+x61-y18_61 <=1 
C681: x18+x62 <=1 
C682: x18+x63-y18_63 <=1 
C683: x18+x64 <=1 
C684: x18+x65-y18_65 <=1 
C685: x19+x20-y19_20 <=1 
C686: x19+x21 <=1 
C687: x19+x23-y19_23 <=1 
C688: x19+x24-y19_24 <=1 
C689: x19+x26-y19_26 <=1 
C690: x19+x27-y19_27 <=1 
C691: x19+x28-y19_28 <=1 
C692: x19+x32-y19_32 <=1 
C693: x19+x34 <=1 
C694: x19+x36 <=1 
C695: x19+x37-y19_37 <=1 
C696: x19+x38-y19_38 <=1 
C697: x19+x39-y19_39 <=1 
C698: x19+x40-y19_40 <=1 
C699: x19+x41-y19_41 <=1 
C700: x19+x45 <=1 
C701: x19+x47 <=1 
C702: x19+x48-y19_48 <=1 
C703: x19+x49 <=1 
C704: x19+x50 <=1 
C705: x19+x53 <=1 
C706: x19+x54 <=1 
C707: x19+x55 <=1 
C708: x19+x56 <=1 
C709: x19+x57-y19_57 <=1 
C710: x19+x58-y19_58 <=1 
C711: x19+x59-y19_59 <=1 
C712: x19+x61-y19_61 <=1 
C713: x19+x62 <=1 
C714: x19+x63 <=1 
C715: x19+x64 <=1 
C716: x20+x21 <=1 
C717: x20+x22-y20_22 <=1 
C718: x20+x23 <=1 
C719: x20+x24-y20_24 <=1 
C720: x20+x25 <=1 
C721: x20+x26 <=1 
C722: x20+x29-y20_29 <=1 
C723: x20+x30-y20_30 <=1 
C724: x20+x31 <=1 
C725: x20+x33-y20_33 <=1 
C726: x20+x34 <=1 
C727: x20+x35-y20_35 <=1 
C728: x20+x36-y20_36 <=1 
C729: x20+x37 <=1 
C730: x20+x38 <=1 
C731: x20+x39-y20_39 <=1 
C732: x20+x40 <=1 
C733: x20+x42-y20_42 <=1 
C734: x20+x43-y20_43 <=1 
C735: x20+x45-y20_45 <=1 
C736: x20+x46 <=1 
C737: x20+x49-y20_49 <=1 
C738: x20+x50-y20_50 <=1 
C739: x20+x51 <=1 
C740: x20+x52-y20_52 <=1 
C741: x20+x53 <=1 
C742: x20+x55-y20_55 <=1 
C743: x20+x57-y20_57 <=1 
C744: x20+x58-y20_58 <=1 
C745: x20+x62-y20_62 <=1 
C746: x20+x63-y20_63 <=1 
C747: x21+x22-y21_22 <=1 
C748: x21+x25 <=1 
C749: x21+x30-y21_30 <=1 
C750: x21+x31-y21_31 <=1 
C751: x21+x34 <=1 
C752: x21+x36 <=1 
C753: x21+x37 <=1 
C754: x21+x38 <=1 
C755: x21+x40 <=1 
C756: x21+x41-y21_41 <=1 
C757: x21+x42 <=1 
C758: x21+x43-y21_43 <=1 
C759: x21+x44 <=1 
C760: x21+x46-y21_46 <=1 
C761: x21+x47-y21_47 <=1 
C762: x21+x48 <=1 
C763: x21+x49-y21_49 <=1 
C764: x21+x54-y21_54 <=1 
C765: x21+x55-y21_55 <=1 
C766: x21+x56-y21_56 <=1 
C767: x21+x57-y21_57 <=1 
C768: x21+x60 <=1 
C769: x21+x61 <=1 
C770: x21+x65 <=1 
C771: x22+x23-y22_23 <=1 
C772: x22+x25 <=1 
C773: x22+x26-y22_26 <=1 
C774: x22+x28-y22_28 <=1 
C775: x22+x29 <=1 
C776: x22+x30 <=1 
C777: x22+x31-y22_31 <=1 
C778: x22+x33-y22_33 <=1 
C779: x22+x34-y22_34 <=1 
C780: x22+x35-y22_35 <=1 
C781: x22+x37 <=1 
C782: x22+x38 <=1 
C783: x22+x39-y22_39 <=1 
C784: x22+x40-y22_40 <=1 
C785: x22+x41 <=1 
C786: x22+x43 <=1 
C787: x22+x44 <=1 
C788: x22+x47-y22_47 <=1 
C789: x22+x49 <=1 
C790: x22+x50-y22_50 <=1 
C791: x22+x51-y22_51 <=1 
C792: x22+x52-y22_52 <=1 
C793: x22+x55-y22_55 <=1 
C794: x22+x56-y22_56 <=1 
C795: x22+x61-y22_61 <=1 
C796: x22+x62 <=1 
C797: x22+x65 <=1 
C798: x23+x24 <=1 
C799: x23+x25 <=1 
C800: x23+x26-y23_26 <=1 
C801: x23+x28-y23_28 <=1 
C802: x23+x29 <=1 
C803: x23+x30 <=1 
C804: x23+x31-y23_31 <=1 
C805: x23+x33 <=1 
C806: x23+x36 <=1 
C807: x23+x37-y23_37 <=1 
C808: x23+x38 <=1 
C809: x23+x39-y23_39 <=1 
C810: x23+x40 <=1 
C811: x23+x41-y23_41 <=1 
C812: x23+x43-y23_43 <=1 
C813: x23+x44-y23_44 <=1 
C814: x23+x46 <=1 
C815: x23+x47-y23_47 <=1 
C816: x23+x48-y23_48 <=1 
C817: x23+x49-y23_49 <=1 
C818: x23+x50 <=1 
C819: x23+x51-y23_51 <=1 
C820: x23+x52-y23_52 <=1 
C821: x23+x54-y23_54 <=1 
C822: x23+x55-y23_55 <=1 
C823: x23+x56 <=1 
C824: x23+x58 <=1 
C825: x23+x59 <=1 
C826: x23+x62-y23_62 <=1 
C827: x23+x64-y23_64 <=1 
C828: x23+x65 <=1 
C829: x24+x25-y24_25 <=1 
C830: x24+x26 <=1 
C831: x24+x27-y24_27 <=1 
C832: x24+x28 <=1 
C833: x24+x30 <=1 
C834: x24+x31-y24_31 <=1 
C835: x24+x32 <=1 
C836: x24+x34-y24_34 <=1 
C837: x24+x35-y24_35 <=1 
C838: x24+x39-y24_39 <=1 
C839: x24+x40-y24_40 <=1 
C840: x24+x43 <=1 
C841: x24+x45 <=1 
C842: x24+x47-y24_47 <=1 
C843: x24+x54 <=1 
C844: x24+x55-y24_55 <=1 
C845: x24+x56 <=1 
C846: x24+x57-y24_57 <=1 
C847: x24+x58 <=1 
C848: x24+x59 <=1 
C849: x24+x61-y24_61 <=1 
C850: x24+x63-y24_63 <=1 
C851: x24+x64-y24_64 <=1 
C852: x24+x65-y24_65 <=1 
C853: x25+x26 <=1 
C854: x25+x31 <=1 
C855: x25+x33-y25_33 <=1 
C856: x25+x36 <=1 
C857: x25+x37-y25_37 <=1 
C858: x25+x38-y25_38 <=1 
C859: x25+x39-y25_39 <=1 
C860: x25+x40-y25_40 <=1 
C861: x25+x42 <=1 
C862: x25+x45-y25_45 <=1 
C863: x25+x46-y25_46 <=1 
C864: x25+x47 <=1 
C865: x25+x49 <=1 
C866: x25+x51-y25_51 <=1 
C867: x25+x52-y25_52 <=1 
C868: x25+x55-y25_55 <=1 
C869: x25+x58 <=1 
C870: x25+x60-y25_60 <=1 
C871: x25+x61 <=1 
C872: x25+x62-y25_62 <=1 
C873: x25+x63-y25_63 <=1 
C874: x25+x64 <=1 
C875: x25+x65 <=1 
C876: x26+x30 <=1 
C877: x26+x32-y26_32 <=1 
C878: x26+x34 <=1 
C879: x26+x35-y26_35 <=1 
C880: x26+x36-y26_36 <=1 
C881: x26+x38-y26_38 <=1 
C882: x26+x40-y26_40 <=1 
C883: x26+x41-y26_41 <=1 
C884: x26+x45-y26_45 <=1 
C885: x26+x46-y26_46 <=1 
C886: x26+x47 <=1 
C887: x26+x48 <=1 
C888: x26+x49 <=1 
C889: x26+x50-y26_50 <=1 
C890: x26+x52 <=1 
C891: x26+x55-y26_55 <=1 
C892: x26+x61 <=1 
C893: x26+x62 <=1 
C894: x26+x63-y26_63 <=1 
C895: x26+x65-y26_65 <=1 
C896: x27+x30-y27_30 <=1 
C897: x27+x32 <=1 
C898: x27+x33-y27_33 <=1 
C899: x27+x34-y27_34 <=1 
C900: x27+x35 <=1 
C901: x27+x36 <=1 
C902: x27+x38-y27_38 <=1 
C903: x27+x40 <=1 
C904: x27+x44 <=1 
C905: x27+x45-y27_45 <=1 
C906: x27+x50 <=1 
C907: x27+x51 <=1 
C908: x27+x52 <=1 
C909: x27+x53 <=1 
C910: x27+x54-y27_54 <=1 
C911: x27+x55-y27_55 <=1 
C912: x27+x56-y27_56 <=1 
C913: x27+x57-y27_57 <=1 
C914: x27+x59-y27_59 <=1 
C915: x27+x60-y27_60 <=1 
C916: x27+x61-y27_61 <=1 
C917: x27+x63-y27_63 <=1 
C918: x28+x32-y28_32 <=1 
C919: x28+x33 <=1 
C920: x28+x34-y28_34 <=1 
C921: x28+x35-y28_35 <=1 
C922: x28+x37-y28_37 <=1 
C923: x28+x38-y28_38 <=1 
C924: x28+x39 <=1 
C925: x28+x40 <=1 
C926: x28+x41 <=1 
C927: x28+x42 <=1 
C928: x28+x43 <=1 
C929: x28+x44-y28_44 <=1 
C930: x28+x45-y28_45 <=1 
C931: x28+x48-y28_48 <=1 
C932: x28+x49 <=1 
C933: x28+x51 <=1 
C934: x28+x53-y28_53 <=1 
C935: x28+x54 <=1 
C936: x28+x55-y28_55 <=1 
C937: x28+x56 <=1 
C938: x28+x57 <=1 
C939: x28+x58 <=1 
C940: x28+x62 <=1 
C941: x28+x63-y28_63 <=1 
C942: x28+x64-y28_64 <=1 
C943: x28+x65 <=1 
C944: x29+x31 <=1 
C945: x29+x32-y29_32 <=1 
C946: x29+x35-y29_35 <=1 
C947: x29+x36 <=1 
C948: x29+x37-y29_37 <=1 
C949: x29+x39 <=1 
C950: x29+x40-y29_40 <=1 
C951: x29+x41 <=1 
C952: x29+x42 <=1 
C953: x29+x44-y29_44 <=1 
C954: x29+x46-y29_46 <=1 
C955: x29+x47-y29_47 <=1 
C956: x29+x49-y29_49 <=1 
C957: x29+x51 <=1 
C958: x29+x52-y29_52 <=1 
C959: x29+x54-y29_54 <=1 
C960: x29+x55-y29_55 <=1 
C961: x29+x56 <=1 
C962: x29+x57 <=1 
C963: x29+x62 <=1 
C964: x29+x63 <=1 
C965: x29+x64 <=1 
C966: x30+x31 <=1 
C967: x30+x32 <=1 
C968: x30+x33 <=1 
C969: x30+x35-y30_35 <=1 
C970: x30+x38-y30_38 <=1 
C971: x30+x40 <=1 
C972: x30+x42-y30_42 <=1 
C973: x30+x43-y30_43 <=1 
C974: x30+x44 <=1 
C975: x30+x46-y30_46 <=1 
C976: x30+x47-y30_47 <=1 
C977: x30+x49-y30_49 <=1 
C978: x30+x50-y30_50 <=1 
C979: x30+x53-y30_53 <=1 
C980: x30+x55-y30_55 <=1 
C981: x30+x56 <=1 
C982: x30+x60 <=1 
C983: x30+x61-y30_61 <=1 
C984: x30+x62 <=1 
C985: x30+x65-y30_65 <=1 
C986: x31+x32-y31_32 <=1 
C987: x31+x35 <=1 
C988: x31+x36 <=1 
C989: x31+x38-y31_38 <=1 
C990: x31+x39-y31_39 <=1 
C991: x31+x41-y31_41 <=1 
C992: x31+x42 <=1 
C993: x31+x43 <=1 
C994: x31+x44-y31_44 <=1 
C995: x31+x50-y31_50 <=1 
C996: x31+x52-y31_52 <=1 
C997: x31+x53 <=1 
C998: x31+x54 <=1 
C999: x31+x55-y31_55 <=1 
C1000: x31+x56 <=1 
C1001: x31+x57 <=1 
C1002: x31+x58-y31_58 <=1 
C1003: x31+x60-y31_60 <=1 
C1004: x31+x61-y31_61 <=1 
C1005: x31+x62 <=1 
C1006: x32+x33 <=1 
C1007: x32+x34 <=1 
C1008: x32+x37-y32_37 <=1 
C1009: x32+x38 <=1 
C1010: x32+x40-y32_40 <=1 
C1011: x32+x41-y32_41 <=1 
C1012: x32+x42 <=1 
C1013: x32+x44-y32_44 <=1 
C1014: x32+x45-y32_45 <=1 
C1015: x32+x48-y32_48 <=1 
C1016: x32+x50 <=1 
C1017: x32+x51-y32_51 <=1 
C1018: x32+x52 <=1 
C1019: x32+x53-y32_53 <=1 
C1020: x32+x57-y32_57 <=1 
C1021: x32+x58-y32_58 <=1 
C1022: x32+x59-y32_59 <=1 
C1023: x32+x60-y32_60 <=1 
C1024: x32+x62-y32_62 <=1 
C1025: x32+x63 <=1 
C1026: x32+x65-y32_65 <=1 
C1027: x33+x38-y33_38 <=1 
C1028: x33+x39 <=1 
C1029: x33+x42-y33_42 <=1 
C1030: x33+x43 <=1 
C1031: x33+x47 <=1 
C1032: x33+x48 <=1 
C1033: x33+x50-y33_50 <=1 
C1034: x33+x52-y33_52 <=1 
C1035: x33+x53 <=1 
C1036: x33+x57 <=1 
C1037: x33+x65 <=1 
C1038: x34+x36-y34_36 <=1 
C1039: x34+x37 <=1 
C1040: x34+x38 <=1 
C1041: x34+x39-y34_39 <=1 
C1042: x34+x40-y34_40 <=1 
C1043: x34+x41-y34_41 <=1 
C1044: x34+x43-y34_43 <=1 
C1045: x34+x45 <=1 
C1046: x34+x47 <=1 
C1047: x34+x50-y34_50 <=1 
C1048: x34+x51 <=1 
C1049: x34+x52 <=1 
C1050: x34+x53 <=1 
C1051: x34+x55-y34_55 <=1 
C1052: x34+x57 <=1 
C1053: x34+x58-y34_58 <=1 
C1054: x34+x59 <=1 
C1055: x34+x61 <=1 
C1056: x34+x62-y34_62 <=1 
C1057: x34+x63-y34_63 <=1 
C1058: x35+x36 <=1 
C1059: x35+x37-y35_37 <=1 
C1060: x35+x38 <=1 
C1061: x35+x41-y35_41 <=1 
C1062: x35+x42-y35_42 <=1 
C1063: x35+x44-y35_44 <=1 
C1064: x35+x46-y35_46 <=1 
C1065: x35+x47-y35_47 <=1 
C1066: x35+x48-y35_48 <=1 
C1067: x35+x49-y35_49 <=1 
C1068: x35+x51 <=1 
C1069: x35+x52 <=1 
C1070: x35+x53 <=1 
C1071: x35+x54 <=1 
C1072: x35+x55-y35_55 <=1 
C1073: x35+x56-y35_56 <=1 
C1074: x35+x57 <=1 
C1075: x35+x60-y35_60 <=1 
C1076: x35+x61 <=1 
C1077: x35+x62 <=1 
C1078: x35+x63-y35_63 <=1 
C1079: x35+x64 <=1 
C1080: x36+x38-y36_38 <=1 
C1081: x36+x39 <=1 
C1082: x36+x40-y36_40 <=1 
C1083: x36+x41 <=1 
C1084: x36+x43-y36_43 <=1 
C1085: x36+x44-y36_44 <=1 
C1086: x36+x46-y36_46 <=1 
C1087: x36+x47 <=1 
C1088: x36+x48 <=1 
C1089: x36+x49 <=1 
C1090: x36+x50-y36_50 <=1 
C1091: x36+x51 <=1 
C1092: x36+x52-y36_52 <=1 
C1093: x36+x53 <=1 
C1094: x36+x56 <=1 
C1095: x36+x57 <=1 
C1096: x36+x58-y36_58 <=1 
C1097: x36+x59-y36_59 <=1 
C1098: x36+x60-y36_60 <=1 
C1099: x36+x64-y36_64 <=1 
C1100: x36+x65-y36_65 <=1 
C1101: x37+x38 <=1 
C1102: x37+x42 <=1 
C1103: x37+x45 <=1 
C1104: x37+x46 <=1 
C1105: x37+x48-y37_48 <=1 
C1106: x37+x49-y37_49 <=1 
C1107: x37+x50 <=1 
C1108: x37+x52 <=1 
C1109: x37+x55-y37_55 <=1 
C1110: x37+x56 <=1 
C1111: x37+x58-y37_58 <=1 
C1112: x37+x59 <=1 
C1113: x37+x60 <=1 
C1114: x37+x61-y37_61 <=1 
C1115: x37+x64 <=1 
C1116: x37+x65-y37_65 <=1 
C1117: x38+x39-y38_39 <=1 
C1118: x38+x40-y38_40 <=1 
C1119: x38+x41 <=1 
C1120: x38+x43-y38_43 <=1 
C1121: x38+x44-y38_44 <=1 
C1122: x38+x45-y38_45 <=1 
C1123: x38+x46-y38_46 <=1 
C1124: x38+x49 <=1 
C1125: x38+x50-y38_50 <=1 
C1126: x38+x54 <=1 
C1127: x38+x55 <=1 
C1128: x38+x57-y38_57 <=1 
C1129: x38+x58 <=1 
C1130: x38+x59-y38_59 <=1 
C1131: x38+x60-y38_60 <=1 
C1132: x38+x61 <=1 
C1133: x38+x64-y38_64 <=1 
C1134: x38+x65-y38_65 <=1 
C1135: x39+x40-y39_40 <=1 
C1136: x39+x41-y39_41 <=1 
C1137: x39+x42 <=1 
C1138: x39+x43 <=1 
C1139: x39+x44 <=1 
C1140: x39+x45 <=1 
C1141: x39+x47-y39_47 <=1 
C1142: x39+x48 <=1 
C1143: x39+x49-y39_49 <=1 
C1144: x39+x51 <=1 
C1145: x39+x52 <=1 
C1146: x39+x54 <=1 
C1147: x39+x55-y39_55 <=1 
C1148: x39+x56 <=1 
C1149: x39+x57-y39_57 <=1 
C1150: x39+x58 <=1 
C1151: x39+x59 <=1 
C1152: x39+x60 <=1 
C1153: x39+x61-y39_61 <=1 
C1154: x39+x62 <=1 
C1155: x39+x64 <=1 
C1156: x39+x65-y39_65 <=1 
C1157: x40+x42-y40_42 <=1 
C1158: x40+x45-y40_45 <=1 
C1159: x40+x48 <=1 
C1160: x40+x49 <=1 
C1161: x40+x50-y40_50 <=1 
C1162: x40+x51 <=1 
C1163: x40+x52 <=1 
C1164: x40+x53 <=1 
C1165: x40+x54 <=1 
C1166: x40+x56-y40_56 <=1 
C1167: x40+x58-y40_58 <=1 
C1168: x40+x59 <=1 
C1169: x40+x60-y40_60 <=1 
C1170: x40+x61 <=1 
C1171: x40+x64 <=1 
C1172: x40+x65-y40_65 <=1 
C1173: x41+x42-y41_42 <=1 
C1174: x41+x43-y41_43 <=1 
C1175: x41+x45 <=1 
C1176: x41+x46 <=1 
C1177: x41+x47-y41_47 <=1 
C1178: x41+x48 <=1 
C1179: x41+x49-y41_49 <=1 
C1180: x41+x51-y41_51 <=1 
C1181: x41+x54 <=1 
C1182: x41+x55 <=1 
C1183: x41+x56-y41_56 <=1 
C1184: x41+x58 <=1 
C1185: x41+x59 <=1 
C1186: x41+x60 <=1 
C1187: x41+x62 <=1 
C1188: x41+x63 <=1 
C1189: x41+x65 <=1 
C1190: x42+x45-y42_45 <=1 
C1191: x42+x46 <=1 
C1192: x42+x47 <=1 
C1193: x42+x48-y42_48 <=1 
C1194: x42+x49 <=1 
C1195: x42+x50-y42_50 <=1 
C1196: x42+x55-y42_55 <=1 
C1197: x42+x56 <=1 
C1198: x42+x58 <=1 
C1199: x42+x59-y42_59 <=1 
C1200: x42+x60 <=1 
C1201: x42+x62 <=1 
C1202: x42+x63-y42_63 <=1 
C1203: x42+x65 <=1 
C1204: x43+x46-y43_46 <=1 
C1205: x43+x47-y43_47 <=1 
C1206: x43+x48-y43_48 <=1 
C1207: x43+x49 <=1 
C1208: x43+x52-y43_52 <=1 
C1209: x43+x53 <=1 
C1210: x43+x54-y43_54 <=1 
C1211: x43+x55-y43_55 <=1 
C1212: x43+x56 <=1 
C1213: x43+x57 <=1 
C1214: x43+x64 <=1 
C1215: x43+x65 <=1 
C1216: x44+x46 <=1 
C1217: x44+x48-y44_48 <=1 
C1218: x44+x50-y44_50 <=1 
C1219: x44+x53-y44_53 <=1 
C1220: x44+x56-y44_56 <=1 
C1221: x44+x57-y44_57 <=1 
C1222: x44+x60-y44_60 <=1 
C1223: x44+x62-y44_62 <=1 
C1224: x44+x63 <=1 
C1225: x44+x64 <=1 
C1226: x44+x65-y44_65 <=1 
C1227: x45+x46 <=1 
C1228: x45+x47-y45_47 <=1 
C1229: x45+x50 <=1 
C1230: x45+x53-y45_53 <=1 
C1231: x45+x55 <=1 
C1232: x45+x58-y45_58 <=1 
C1233: x45+x59 <=1 
C1234: x45+x60-y45_60 <=1 
C1235: x45+x61-y45_61 <=1 
C1236: x45+x64-y45_64 <=1 
C1237: x45+x65 <=1 
C1238: x46+x47-y46_47 <=1 
C1239: x46+x48 <=1 
C1240: x46+x49 <=1 
C1241: x46+x50-y46_50 <=1 
C1242: x46+x52-y46_52 <=1 
C1243: x46+x53 <=1 
C1244: x46+x54-y46_54 <=1 
C1245: x46+x55-y46_55 <=1 
C1246: x46+x56 <=1 
C1247: x46+x58-y46_58 <=1 
C1248: x46+x64 <=1 
C1249: x47+x48 <=1 
C1250: x47+x49-y47_49 <=1 
C1251: x47+x50-y47_50 <=1 
C1252: x47+x51 <=1 
C1253: x47+x56 <=1 
C1254: x47+x57 <=1 
C1255: x47+x59-y47_59 <=1 
C1256: x47+x60 <=1 
C1257: x47+x63 <=1 
C1258: x47+x64 <=1 
C1259: x47+x65-y47_65 <=1 
C1260: x48+x49 <=1 
C1261: x48+x54-y48_54 <=1 
C1262: x48+x55 <=1 
C1263: x48+x57 <=1 
C1264: x48+x58-y48_58 <=1 
C1265: x48+x60 <=1 
C1266: x48+x61-y48_61 <=1 
C1267: x48+x62 <=1 
C1268: x48+x64 <=1 
C1269: x48+x65-y48_65 <=1 
C1270: x49+x51-y49_51 <=1 
C1271: x49+x52 <=1 
C1272: x49+x54-y49_54 <=1 
C1273: x49+x55 <=1 
C1274: x49+x56 <=1 
C1275: x49+x58 <=1 
C1276: x49+x61-y49_61 <=1 
C1277: x50+x52-y50_52 <=1 
C1278: x50+x53 <=1 
C1279: x50+x54 <=1 
C1280: x50+x55 <=1 
C1281: x50+x57 <=1 
C1282: x50+x58 <=1 
C1283: x50+x60-y50_60 <=1 
C1284: x50+x61 <=1 
C1285: x50+x62-y50_62 <=1 
C1286: x50+x63 <=1 
C1287: x50+x64-y50_64 <=1 
C1288: x50+x65-y50_65 <=1 
C1289: x51+x52-y51_52 <=1 
C1290: x51+x54 <=1 
C1291: x51+x57-y51_57 <=1 
C1292: x51+x58 <=1 
C1293: x51+x59-y51_59 <=1 
C1294: x51+x60-y51_60 <=1 
C1295: x51+x61-y51_61 <=1 
C1296: x51+x63 <=1 
C1297: x51+x64-y51_64 <=1 
C1298: x52+x53 <=1 
C1299: x52+x55 <=1 
C1300: x52+x56-y52_56 <=1 
C1301: x52+x59 <=1 
C1302: x52+x60-y52_60 <=1 
C1303: x52+x61-y52_61 <=1 
C1304: x52+x62 <=1 
C1305: x52+x63 <=1 
C1306: x53+x54 <=1 
C1307: x53+x56 <=1 
C1308: x53+x58-y53_58 <=1 
C1309: x53+x59-y53_59 <=1 
C1310: x53+x60-y53_60 <=1 
C1311: x53+x61 <=1 
C1312: x53+x62-y53_62 <=1 
C1313: x53+x63-y53_63 <=1 
C1314: x53+x64 <=1 
C1315: x54+x56-y54_56 <=1 
C1316: x54+x58 <=1 
C1317: x54+x59 <=1 
C1318: x54+x60-y54_60 <=1 
C1319: x54+x62-y54_62 <=1 
C1320: x54+x63 <=1 
C1321: x55+x56 <=1 
C1322: x55+x57 <=1 
C1323: x55+x58 <=1 
C1324: x55+x62 <=1 
C1325: x55+x63 <=1 
C1326: x55+x65 <=1 
C1327: x56+x58-y56_58 <=1 
C1328: x56+x61-y56_61 <=1 
C1329: x56+x62 <=1 
C1330: x56+x65-y56_65 <=1 
C1331: x57+x58 <=1 
C1332: x57+x59-y57_59 <=1 
C1333: x57+x61-y57_61 <=1 
C1334: x57+x63-y57_63 <=1 
C1335: x57+x64-y57_64 <=1 
C1336: x57+x65 <=1 
C1337: x58+x63-y58_63 <=1 
C1338: x58+x65-y58_65 <=1 
C1339: x59+x60-y59_60 <=1 
C1340: x59+x61 <=1 
C1341: x59+x62-y59_62 <=1 
C1342: x59+x63-y59_63 <=1 
C1343: x59+x64 <=1 
C1344: x59+x65 <=1 
C1345: x60+x62 <=1 
C1346: x60+x63-y60_63 <=1 
C1347: x60+x64-y60_64 <=1 
C1348: x61+x62-y61_62 <=1 
C1349: x61+x63-y61_63 <=1 
C1350: x61+x64 <=1 
C1351: x61+x65-y61_65 <=1 
C1352: x62+x63-y62_63 <=1 
C1353: x62+x65 <=1 
C1354: x63+x65 <=1 
C1355: x64+x65 <=1 

binary
x0
x1
x2
x3
x4
x5
x6
x7
x8
x9
x10
x11
x12
x13
x14
x15
x16
x17
x18
x19
x20
x21
x22
x23
x24
x25
x26
x27
x28
x29
x30
x31
x32
x33
x34
x35
x36
x37
x38
x39
x40
x41
x42
x43
x44
x45
x46
x47
x48
x49
x50
x51
x52
x53
x54
x55
x56
x57
x58
x59
x60
x61
x62
x63
x64
x65
