problem_generation/data/GISP/train/er_n=66_m=1355_p=0.60_SET2_setparam=100.00_alpha=0.50_770.sol
objective value:                                 1174
x0                                                  1 	(obj:100)
x2                                                  1 	(obj:100)
x12                                                 1 	(obj:100)
x17                                                 1 	(obj:100)
x21                                                 1 	(obj:100)
x22                                                 1 	(obj:100)
x26                                                 1 	(obj:100)
x32                                                 1 	(obj:100)
x35                                                 1 	(obj:100)
x56                                                 1 	(obj:100)
x58                                                 1 	(obj:100)
x59                                                 1 	(obj:100)
y17_58                                              1 	(obj:-1)
y32_59                                              1 	(obj:-1)
y21_22                                              1 	(obj:-1)
y2_17                                               1 	(obj:-1)
y2_26                                               1 	(obj:-1)
y12_58                                              1 	(obj:-1)
y2_35                                               1 	(obj:-1)
y2_21                                               1 	(obj:-1)
y32_58                                              1 	(obj:-1)
y12_56                                              1 	(obj:-1)
y0_32                                               1 	(obj:-1)
y2_58                                               1 	(obj:-1)
y22_26                                              1 	(obj:-1)
y22_35                                              1 	(obj:-1)
y26_32                                              1 	(obj:-1)
y17_59                                              1 	(obj:-1)
y17_22                                              1 	(obj:-1)
y35_56                                              1 	(obj:-1)
y12_59                                              1 	(obj:-1)
y17_21                                              1 	(obj:-1)
y12_22                                              1 	(obj:-1)
y12_35                                              1 	(obj:-1)
y21_56                                              1 	(obj:-1)
y22_56                                              1 	(obj:-1)
y56_58                                              1 	(obj:-1)
y26_35                                              1 	(obj:-1)
